Route #1: 10 57 5 56 52 61 37 25 36 16 6 60 15 20 23 49
Route #2: 58 40 26 46 59 7 54 45
Route #3: 
Route #4: 44 53 63 43 24 21 64 3
Route #5: 48 34 4 12 29 62 14 38 17 30 11 13 33 19 51
Route #6: 1 8 47 22 9 18 39 35 50 42 31 55 28 41 27 2 32
Route #7: 
Route #8: 
Route #9: 
cost 966.5616437073728
